echo               both

# log file is in output directory
shell              mkdir  ${dname}
log                ${dname}/log.lammps
# use SI units
units              si

# requires a custom version of LAMMPS
# https://github.com/slitvinov/lammps-sph-multiphase
# Built with
# make yes-USER-SPH
# 
# See also
# http://lammps.sandia.gov/doc/Section_start.html#start_3
atom_style         meso/multiphase

# dimension (2 or 3)
dimension         ${ndim}
include           vars.lmp

# create simulation box
variable           xcenter equal 0.5*${Lx}
variable           ycenter equal 0.5*${Ly}
if ${ndim}==3 then &
"variable           zcenter equal 0.5*${Lz}" &
else &
"variable           zcenter equal 0.0" &

if ${ndim}==2 then &
"region             box block 0.0 ${Lx}  0.0 ${Ly} 0 ${dx} units box" &
else &
"region             box block 0.0 ${Lx}  0.0 ${Ly} 0.0 ${Lz} units box"

# we have two times of atoms: vapor and liquid
create_box         2 box

if ${ndim}==2 then &
"lattice            sq ${dx} origin 0.5 0.5 0" &
else &
"lattice            sc ${dx} origin 0.5 0.5 0.5"

# create liquid atoms
variable            natoms equal   ${nx}^${ndim}
#create_atoms        ${l_type} region box
create_atoms        ${l_type}  random ${natoms} 12345 NULL

# do full time integration for all particles
fix                integrate_fix_full all meso

# get time step
include            settimestep.lmp
timestep           ${dt}

neighbor           0 bin
neigh_modify       delay 0 every 1
comm_modify        vel yes

pair_style         hybrid/overlay sph/rhosum/multiphase 1 sph/colorgradient 1 &
                   sph/taitwater/multiphase sph/surfacetension sph/heatconduction/phasechange
pair_coeff         * * sph/rhosum/multiphase   ${h}
pair_coeff         ${v_type} ${v_type} sph/colorgradient ${h} 0
pair_coeff         ${l_type} ${v_type} sph/colorgradient ${h} ${alpha}
pair_coeff         ${l_type} ${l_type} sph/colorgradient ${h} 0

variable           sph_eta_ld equal 2*${sph_eta_l}*${sph_eta_v}/(${sph_eta_v}+${sph_eta_l})
pair_coeff         ${l_type} ${v_type} sph/taitwater/multiphase ${sph_rho_l} ${sph_c_l} ${sph_eta_ld} 1.0 ${h} ${rbackground}
pair_coeff         ${l_type} ${l_type} sph/taitwater/multiphase ${sph_rho_l} ${sph_c_l}  ${sph_eta_l} 1.0 ${h} ${rbackground}
pair_coeff         ${v_type} ${v_type} sph/taitwater/multiphase ${sph_rho_v} ${sph_c_v}  ${sph_eta_v} 1.0 ${h} ${rbackground}

pair_coeff         * * sph/surfacetension ${h}
pair_coeff         ${l_type} ${l_type} sph/heatconduction/phasechange  ${D_heat_l} ${h}
variable           D_heat_ld equal 2*${D_heat_l}*${D_heat_v}/(${D_heat_v}+${D_heat_l})
pair_coeff         ${l_type} ${v_type} sph/heatconduction/phasechange  ${D_heat_ld} ${h} NULL ${Tc}
pair_coeff         ${v_type} ${v_type} sph/heatconduction/phasechange  ${D_heat_v} ${h}

include            in.phases

group           bubble type ${v_type}
compute         rho_peratom all meso_rho/atom
compute         it_atom all meso_t/atom
compute         ie_atom all meso_e/atom
compute         ie all reduce sum c_ie_atom
compute         ie_ave bubble reduce ave c_ie_atom
compute         ie_max bubble reduce max c_ie_atom
compute         ie_min bubble reduce min c_ie_atom
variable        batoms equal count(bubble)

compute             rho_min all reduce min c_rho_peratom
variable            rho_min equal c_rho_min

compute             rho_max all reduce max c_rho_peratom
variable            rho_max equal c_rho_max
thermo              ${Nfreq}

# outside of this sphere the temperature is ${Tinf}
variable          Rtemp equal ${xcenter}-2.6*${dx}
region            rtemp sphere ${xcenter} ${ycenter} ${zcenter} ${Rtemp} units box
fix               smeso      all setmeso meso_t ${Tinf} noregion rtemp

write_data        ${dname}/data.dat

if "${ndim}==2" then "fix e2d all enforce2d"
include           dump.lmp
variable          total_time equal step*${dt}
thermo_style      custom step v_total_time v_batoms v_rho_min v_rho_max
variable          relax1 equal round(0.004/${dt})
run               ${relax1}

region            rsq sphere ${xcenter} ${ycenter} ${zcenter} 0.05 units box
set               region rsq type ${v_type}
variable          relax2 equal round(0.004/${dt})

include            in.phases
velocity          all set 0 0 0

run               ${relax2}

velocity          all set 0 0 0

variable           insert_every equal 1
variable           dr equal 0.5*${dx}
variable           pcutoff equal ${h}
variable           prob    equal 0.01
fix                fdep bubble phase_change &
                   ${Tc} ${Tt} ${Hwv} ${dr} ${mass_v} &
                   ${pcutoff} ${l_type} ${v_type} ${insert_every} &
		   123456 ${prob} region box units box

fix extra all print 10 &
"${time} $(count(bubble)*v_dx^v_ndim) $(count(bubble)) &
$(c_ie_min) $(c_ie_ave) $(c_ie_max)" &
file ${dname}/rg.dat screen no

variable          time equal (step-${relax1}-${relax2})*${dt}
variable          nstep equal round(0.003/${dt})
thermo_style      custom step v_time v_batoms v_rho_min v_rho_max
run               ${nstep}
