log                ${dname}/log.lammps
echo               both
dimension          2
units              si
atom_style         meso
# periodic boundaries to have a correct density on the wall
# TODO: make density fixed for the choosen particles
boundary          p p p
variable          ndim index 2d
include            ${ndim}-vars.lmp

# create simulation box
variable           pLz    equal  1.0e-3
variable           nLz    equal  -1.0e-3
variable           xcenter equal 0.5*${Lx}
variable           ycenter equal 0.5*${Ly}
region             box block 0.0 ${Lx}  0.0 ${Ly} ${nLz} ${pLz} units box

# create box with two types of particles (water, gas)
create_box         2 box

# create gas particles
lattice            sq ${dx}
create_atoms       ${g_type} region box

# set mass of the particles
mass               ${d_type} ${sph_mass_d}
mass               ${g_type} ${sph_mass_g}

set                 type ${d_type} meso_rho ${sph_rho_d}
set                 type ${g_type} meso_rho ${sph_rho_g}

compute            rho_peratom all meso_rho/atom
compute            colorgradient_peratom all meso_colorgradient/atom

# do full time integration for all particles
fix                integrate_fix_full all meso

dump               dump_id all custom ${Nfreq} ${dname}/dump*.dat id type x y z vx vy vy fx fy fz c_rho_peratom c_colorgradient_peratom
dump_modify        dump_id first yes sort id pad 8

#include            ${ndim}-image.lmp
variable           sph_mu  equal ${sph_eta_d}/${sph_rho_d}
include            settimestep.lmp

neighbor           3.0e-2 bin
neigh_modify       delay 0 every 1

communicate        single vel yes
set                group all meso_rho ${sph_rho_g}

pair_style         hybrid/overlay sph/rhosum_multiphase 1 sph/colorgradient 1 sph/taitwater/morris sph/surfacetension
pair_coeff         * * sph/rhosum_multiphase   ${h}
pair_coeff         ${d_type} ${d_type} sph/colorgradient ${h} 0
pair_coeff         ${g_type} ${d_type} sph/colorgradient ${h} ${alpha}
pair_coeff         ${g_type} ${g_type} sph/colorgradient ${h} 0

# harmonic mean of viscosities
variable           sph_eta_gd equal 2*${sph_eta_g}*${sph_eta_d}/(${sph_eta_d}+${sph_eta_g})
pair_coeff         ${g_type} ${d_type} sph/taitwater/morris ${sph_rho_g} ${sph_c_g} ${sph_eta_gd} ${h} ${rbackground}
pair_coeff         ${g_type} ${g_type} sph/taitwater/morris ${sph_rho_g} ${sph_c_g} ${sph_eta_g} ${h} ${rbackground}
pair_coeff         ${d_type} ${d_type} sph/taitwater/morris ${sph_rho_d} ${sph_c_d} ${sph_eta_d} ${h} ${rbackground}

pair_coeff         * * sph/surfacetension ${h}

dump               dump_xyz all xyz ${Nfreq} ${dname}/data.xyz
dump_modify        dump_xyz element A B

variable            time equal step*dt
thermo_style        custom step v_time
thermo              10

# create droplet
variable           x1 equal ${xcenter}-${dx}
variable           x2 equal ${xcenter}+${dx}

variable           y1 equal ${ycenter}-${dx}
variable           y2 equal ${ycenter}+${dx}

region             rinsert block ${x1} ${x2} ${y1} ${y2} EDGE EDGE units box
variable           Ninsert equal 1000
variable           insert_every equal 10
fix                fdep all phase_change ${Ninsert} ${d_type} ${insert_every} 123456 region rinsert units box

timestep           ${dt}
run               10000
