# Compare heat conduction from LAMMPS and from maxima
# (phase_change.lmp)
# To run this test:
#
# maxima -b phase_change.mac
# ../../../../src/lmp_linux -in phase_change.lmp
#
# To see the output 
# head pos.dat

echo               both
dimension          3
units              si
atom_modify        map array sort 0 0
atom_style         meso/multiphase
comm_modify    vel yes

#2D box
# domain size
variable          Lx equal 10
# smothing length
variable          h equal 1
variable          alpha equal 1.0

variable          nLx equal -${Lx}
region             box block 0 ${Lx} 0 ${Lx} ${nLx} ${Lx} units box

create_box         2 box

# run 
# maxima -b phase_change.mac
# to get this file
include           in.atoms

set               type 1         mass 10
set               type 2         mass 2

set               type 1         meso_rho 1
set               type 2         meso_rho 1

set               type 1  meso_e 10.0
set               type 2  meso_e 2.0

set               type 1  meso_cv 3.0
set               type 2  meso_cv 1.0

variable          Tc      equal 1
variable         Hwv      equal 1
variable          dr      equal 1
variable          to_mass equal 1
variable          pcutoff equal 1
variable          from_type equal 1
variable          to_type   equal 2
variable          insert_every equal 1
variable          prob     equal 1

pair_style        sph/colorgradient 1
pair_style         sph/colorgradient 1
pair_coeff         1 1     ${h} 0
pair_coeff         2 2     ${h} 0
pair_coeff         1 2     ${h} ${alpha}

fix                fdep all phase_change &
                   ${Tc} ${Tc} ${Hwv} ${dr} ${to_mass} &
                   ${pcutoff} ${from_type} ${to_type} ${insert_every} 123456 ${prob} &
		   region box units box

# do full time integration
fix                integrate_fix_full all  meso

compute         e_atom all meso_e/atom
compute         de_atom all meso_de/atom
compute         t_atom all  meso_t/atom

neighbor           3.0e-6 bin
timestep           0

dump              dump_txt all custom 1 dump.*.dat id type x y z vx vy vy mass c_e_atom c_de_atom

fix extra all print 1 "$(c_de_atom[1]) $(c_de_atom[2]) $(c_t_atom[1]) $(c_t_atom[2])" file pos.dat screen no
run                1
