echo               both
dimension          3
units              si
atom_modify        map array sort 0 0
atom_style         meso/multiphase
comm_modify    vel yes

#2D box
# domain size
variable          Lx equal 10
# the center of the domain
variable          xcenter equal 0.5*${Lx}
# smothing length
variable          h equal 1

variable          alpha equal 1.0

variable          nLx equal -${Lx}
region             box block 0 ${Lx} 0 ${Lx} ${nLx} ${Lx} units box

create_box         2 box


# create atom with id=1
create_atoms 1 single ${xcenter} ${xcenter} 0.0 units box
group        fst id 1
velocity     fst set 0.0 0.0 0.0 units box

# create atom with id=2
variable          x2pos equal ${xcenter}+0.5
create_atoms 2 single ${x2pos} ${xcenter} 0.0 units box
group        scd id 2
velocity     scd set 0.0 0.0 0.0 units box

set               type 1         mass 1
set               type 2         mass 1

set               type 1         meso_rho 1
set               type 2         meso_rho 1

pair_style         hybrid/overlay sph/colorgradient 1 sph/surfacetension
pair_coeff         1 1     sph/colorgradient ${h} 0
pair_coeff         2 2     sph/colorgradient ${h} 0
pair_coeff         1 2     sph/colorgradient ${h} ${alpha}

pair_coeff         1 1     sph/surfacetension ${h}
pair_coeff         2 2     sph/surfacetension ${h}
pair_coeff         1 2     sph/surfacetension ${h}

# do full time integration
fix                integrate_fix_full all  meso

compute            colorgradient_peratom all meso_colorgradient/atom

neighbor           3.0e-6 bin
timestep           0

variable           force_sdpd_fx equal fx[1]
variable           force_sdpd_fy equal fy[1]
compute            rho_peratom all meso_rho/atom
dump               dump_id all custom 1 dump*.dat id x y vx vy c_rho_peratom

fix extra all print 1 "$(fx[1]) $(fx[2])" file pos.dat screen no
run                1

