# mesoscopic heat conduction
# heat flow from hot right region to cold left region
# compare the temperature profile at the end opf the simulation,
# contained in file dump.last, to analytic solution.
#
#
echo            both
dimension       2
units		si
atom_style	meso
boundary        f p p

variable        dx equal 0.02
variable         h equal 3*${dx}
variable        rho equal 0.1
variable        rmass equal ${rho}*${dx}^2
lattice		sq ${dx}
region		box block 0 1.0 0 0.3 0 ${dx} units box
create_box	2 box
create_atoms	1 box
set             group all mass ${rmass}

region          left  block EDGE 0.5 EDGE EDGE EDGE EDGE units box
region          right block 0.5 EDGE EDGE EDGE EDGE EDGE units box
set             region left  type 1
set             region right type 2
set             region left  meso_cv 1.0
set             region right meso_cv 1.0
set             region left  meso_e 1.0 # internal energies
set             region right meso_e 2.0
set             group all meso_rho ${rho} # mesoscopic density is also needed for this pair style
#               For correct temperature profiles, mescoscopic density and mass * number density must coincide!

pair_style      sph/heatconduction 
#               i j diffusion coeff. cutoff
variable        k1 equal 1e-3
variable        k2 equal 1e-4
pair_coeff      1 1   ${k1}           ${h}
variable        k12 equal 2*${k1}*${k2}/(${k1}+${k2})
pair_coeff      1 2   ${k12}           ${h}
pair_coeff      2 2   ${k2}           ${h}

compute         ie_atom all meso_e/atom
compute         ie all reduce sum c_ie_atom

thermo		10
thermo_style    custom step temp c_ie
timestep        0.25e-2
neighbor	0.2e-2 bin
fix             integrate_fix all meso/stationary

dump		dump_fix all custom 10 dump.heat id type x y z c_ie_atom
dump_modify     dump_fix first yes
run             320
undump          dump_fix

dump		dump_fix all custom 10 dump.last id type x y z c_ie_atom
dump_modify     dump_fix first yes
run             0
undump          dump_fix

dump		dump_fix all custom 10 dump.last.xs id type xs ys zs c_ie_atom
dump_modify     dump_fix first yes
run             0
undump          dump_fix
