log                ${dname}/log.lammps
echo               both
dimension          2
units              si

# requires a custom version of LAMMPS
# https://github.com/slitvinov/lammps-sph-multiphase
# Built with
# make yes-USER-SPH
# 
# See also
# http://lammps.sandia.gov/doc/Section_start.html#start_3
atom_style         meso/multiphase
boundary          p p p
variable          ndim index 2d
include           case${icase}.lmp

# create simulation box
variable           pLz    equal  1.0e-3
variable           nLz    equal  -1.0e-3
variable           Lywall equal ${Ly}+6*${dx}
variable           Lxwall equal ${Lx}+6*${dx}
variable           xcenter equal 0.5*${Lxwall}
variable           ycenter equal 0.5*${Lywall}
region             box block 0.0 ${Lxwall}  0.0 ${Lywall} ${nLz} ${pLz} units box

# create box with two types of particles (gas and droplet)
create_box         3 box

# create gas particles
lattice            sq ${dx} origin 0.5 0.5 0.0
create_atoms       ${g_type} region box

variable     ylow equal 3*${dx}
variable     yhi  equal ${Ly}+3*${dx}

variable     xlow equal 3*${dx}
variable     xhi  equal ${Lx}+3*${dx}

region	     rflow block INF INF ${ylow} ${yhi} INF INF units box
group	     flow region rflow
group	     boundary subtract all flow
set          group boundary type ${w_type}

# fix wall particles
fix          wallim boundary setforce 0 0 0

compute            rho_peratom all meso_rho/atom
compute            colorgradient_peratom all meso_colorgradient/atom

fix                integrate_fix_full all meso

dump               dump_id all custom ${Nfreq} ${dname}/dump*.dat id type x y z vx vy vz c_rho_peratom c_colorgradient_peratom
dump_modify        dump_id first yes sort id pad 8

include            ${ndim}-image.lmp
variable           sph_mu  equal ${sph_eta_d}/${sph_rho_d}
include            settimestep.lmp

neighbor           0       bin
neigh_modify       delay 0 every 1
comm_modify        vel yes
set                group all meso_rho ${sph_rho_g}

pair_style         hybrid/overlay sph/rhosum/multiphase 1 sph/colorgradient 1 &
                   sph/taitwater/multiphase sph/surfacetension
pair_coeff         * * sph/rhosum/multiphase   ${h}
pair_coeff         ${d_type} ${d_type} sph/colorgradient ${h} 0
pair_coeff         ${g_type} ${d_type} sph/colorgradient ${h} ${alpha_gd}
pair_coeff         ${g_type} ${g_type} sph/colorgradient ${h} 0
pair_coeff         ${d_type} ${w_type} sph/colorgradient ${h} ${alpha_dw}
pair_coeff         ${g_type} ${w_type} sph/colorgradient ${h} ${alpha_gw}
pair_coeff         ${w_type} ${w_type} sph/colorgradient ${h} 0

variable           sph_eta_gd equal 2*${sph_eta_g}*${sph_eta_d}/(${sph_eta_d}+${sph_eta_g})
variable           sph_eta_gw equal 2*${sph_eta_g}*${sph_eta_w}/(${sph_eta_g}+${sph_eta_w})
variable           sph_eta_dw equal 2*${sph_eta_d}*${sph_eta_w}/(${sph_eta_d}+${sph_eta_w})

variable           gamma equal 1.0
variable           rbackground equal 0.0
include            pairs.lmp

pair_coeff         * * sph/surfacetension ${h}

dump               dump_dcd all dcd ${Nfreq} ${dname}/droplet.dcd
dump_modify        dump_dcd sort id

dump               dump_xyz all xyz ${Nfreq} ${dname}/droplet.xyz
dump_modify        dump_xyz element A B C

# create           a droplet
variable           yhi equal 0.3
variable           xlo equal ${xcenter}-0.25
variable           xhi equal ${xcenter}+0.25
region             rdroplet block     ${xlo} ${xhi} EDGE ${yhi} EDGE EDGE units box

region             udroplet intersect 2 rdroplet rflow
set	           region  udroplet type ${d_type}

set                 type ${d_type} meso_rho ${sph_rho_d}
set                 type ${g_type} meso_rho ${sph_rho_g}
set                 type ${w_type} meso_rho ${sph_rho_w}

variable            time equal step*dt
thermo_style        custom step v_time
thermo              10 


timestep           ${dt}

set               type ${d_type} mass ${sph_mass_d}
set               type ${g_type} mass ${sph_mass_g}
set               type ${w_type} mass ${sph_mass_w}

group             droplet type ${d_type}


compute            rg droplet gyration
variable           vrg equal c_rg
variable           vspher equal c_rg[1]/c_rg[2]
fix extra all print 1 "${time} ${vrg} ${vspher}" file ${dname}/com.dat screen no

write_data         ${dname}/droplet.dat

variable          ntime         equal round(0.50/${dt})
variable          prerun_ntime  equal round(0.05/${dt})

variable          langevin_T0   equal 1e22*64/${nx}
variable          langevin_dump equal 1.0

fix               fix_la    flow langevin  ${langevin_T0} ${langevin_T0} ${langevin_dump} 1234567
run               ${prerun_ntime}

unfix             fix_la
velocity          flow zero linear
run               ${prerun_ntime}
velocity          flow zero linear

variable           gamma equal 1.0
variable           rbackground equal 0.00
include            pairs.lmp

run               ${ntime}
