echo               both

# log file is in output directory
shell              mkdir  ${dname}
log                ${dname}/log.lammps
# use SI units
units              si
atom_style         meso/multiphase

# dimension (2 or 3)
dimension         ${ndim}
include           vars.lmp

# create simulation box
variable           xcenter equal 0.5*${Lx}
variable           ycenter equal 0.5*${Ly}
if ${ndim}==3 then &
"variable           zcenter equal 0.5*${Lz}" &
else &
"variable           zcenter equal 0.0" &

if ${ndim}==2 then &
"region             box block 0.0 ${Lx}  0.0 ${Ly} 0 ${dx} units box" &
else &
"region             box block 0.0 ${Lx}  0.0 ${Ly} 0.0 ${Lz} units box"

# we have two times of atoms: vapor and liquid
create_box         2 box

if ${ndim}==2 then &
"lattice            sq ${dx} origin 0.5 0.5 0" &
else &
"lattice            sc ${dx} origin 0.5 0.5 0.5"

# create liquid atoms
create_atoms       ${l_type} region box

# do full time integration for all particles
fix                integrate_fix_full all meso

# get time step
include            settimestep.lmp
timestep           ${dt}

neighbor           0 bin
neigh_modify       delay 0 every 1
comm_modify        vel yes

pair_style         hybrid/overlay sph/rhosum/multiphase 1 sph/colorgradient 1 &
                   sph/taitwater/multiphase sph/surfacetension sph/heatconduction/phasechange
pair_coeff         * * sph/rhosum/multiphase   ${h}
pair_coeff         ${v_type} ${v_type} sph/colorgradient ${h} 0
pair_coeff         ${l_type} ${v_type} sph/colorgradient ${h} ${alpha}
pair_coeff         ${l_type} ${l_type} sph/colorgradient ${h} 0

variable           sph_eta_ld equal 2*${sph_eta_l}*${sph_eta_v}/(${sph_eta_v}+${sph_eta_l})
pair_coeff         ${l_type} ${v_type} sph/taitwater/multiphase ${sph_rho_l} ${sph_c_l} ${sph_eta_ld} 7.0 ${h} ${rbackground}
pair_coeff         ${l_type} ${l_type} sph/taitwater/multiphase ${sph_rho_l} ${sph_c_l}  ${sph_eta_l} 7.0 ${h} ${rbackground}
pair_coeff         ${v_type} ${v_type} sph/taitwater/multiphase ${sph_rho_v} ${sph_c_v}  ${sph_eta_v} 7.0 ${h} ${rbackground}

pair_coeff         * * sph/surfacetension ${h}
pair_coeff         ${l_type} ${l_type} sph/heatconduction/phasechange  ${D_heat_l} ${h}
variable           D_heat_ld equal 2*${D_heat_l}*${D_heat_v}/(${D_heat_v}+${D_heat_l})
pair_coeff         ${l_type} ${v_type} sph/heatconduction/phasechange  ${D_heat_ld} ${h} NULL ${Tc}
pair_coeff         ${v_type} ${v_type} sph/heatconduction/phasechange  ${D_heat_v} ${h}

variable           insert_every equal 1
variable           dr equal 0.5*${dx}
variable           prob equal 0.01

region            rsq sphere ${xcenter} ${ycenter} ${zcenter} 0.05 units box
set               region rsq type ${v_type}

set               type ${v_type} meso_cv ${cv_v}
set               type ${l_type} meso_cv ${cv_l}
set               type ${v_type} meso_e ${e_v}
set               type ${l_type} meso_e ${e_l}
set               type ${v_type} mass ${mass_v}
set               type ${l_type} mass ${mass_l}
set               type ${v_type} meso_rho ${sph_rho_v}
set               type ${l_type} meso_rho ${sph_rho_l}

group           bubble type ${v_type}
compute         rho_peratom all meso_rho/atom
compute         it_atom all meso_t/atom
compute         ie_atom all meso_e/atom
compute         ie all reduce sum c_ie_atom
compute         ie_ave bubble reduce ave c_ie_atom
compute         ie_max bubble reduce max c_ie_atom
compute         ie_min bubble reduce min c_ie_atom
variable        time equal step*${dt}
variable        natoms equal count(all)
fix extra all print 10 &
"${time} $(count(bubble)*v_dx^v_ndim) $(count(bubble)) &
$(c_ie_min) $(c_ie_ave) $(c_ie_max)" &
file ${dname}/rg.dat screen no


thermo_style        custom step v_time
thermo              ${Nfreq}

variable           insert_every equal 1
variable           dr equal 0.1*${dx}
variable           pcutoff equal ${h}

fix                fdep bubble phase_change &
                   ${Tc} ${Tt} ${Hwv} ${dr} ${mass_v} &
                   ${pcutoff} ${l_type} ${v_type} ${insert_every} &
		   123456 ${prob} region box units box

# outside of this sphere the temperature is 1.0
variable          Rtemp equal ${xcenter}-2.6*${dx}
region            rtemp sphere ${xcenter} ${ycenter} ${zcenter} ${Rtemp} units box
fix               smeso      all setmeso meso_t ${Tinf} noregion rtemp

variable          nstep equal round(0.002/${dt})

write_data        ${dname}/data.dat

if "${ndim}==2" then "fix e2d all enforce2d"
include           dump.lmp
run               ${nstep}
